nK = 484;
nT = 4;
nI = 7;
L = 35;
TT = 122;
np = 1;
nc = 3;
b = [21, 51, 56, 55, 56, 26, 56];
d = [40, 88, 86, 149, 92, 106, 130];
m = [2.4, 1.9, 1.4, 1.9, 1.1, 2.2, 2.3];
pt = [0.33, 0.31, 0.26, 0.23];
st = [15.51, 13.33, 14.82, 10.58];
arc = {<1, 0, 1, 1, 0, 0, 0, [1, 1, 1, 1]>, <2, 1, 2, 1, 0, 0, 0, [1, 1, 1, 1]>, <3, 2, 3, 1, 0, 0, 0, [1, 1, 1, 1]>, <4, 3, 4, 1, 0, 0, 0, [1, 1, 1, 1]>, <5, 4, 5, 1, 0, 0, 0, [1, 1, 1, 1]>, <6, 5, 6, 1, 0, 0, 0, [1, 1, 1, 1]>, <7, 6, 7, 1, 0, 0, 0, [1, 1, 1, 1]>, <8, 7, 8, 1, 0, 0, 0, [1, 1, 1, 1]>, <9, 8, 9, 1, 0, 0, 0, [1, 1, 1, 1]>, <10, 9, 10, 1, 0, 0, 0, [1, 1, 1, 1]>, <11, 10, 11, 1, 0, 0, 0, [1, 1, 1, 1]>, <12, 11, 12, 1, 0, 0, 0, [1, 1, 1, 1]>, <13, 12, 13, 1, 0, 0, 0, [1, 1, 1, 1]>, <14, 13, 14, 1, 0, 0, 0, [1, 1, 1, 1]>, <15, 14, 15, 1, 0, 0, 0, [1, 1, 1, 1]>, <16, 15, 16, 1, 0, 0, 0, [1, 1, 1, 1]>, <17, 16, 17, 1, 0, 0, 0, [1, 1, 1, 1]>, <18, 17, 18, 1, 0, 0, 0, [1, 1, 1, 1]>, <19, 18, 19, 1, 0, 0, 0, [1, 1, 1, 1]>, <20, 19, 20, 1, 0, 0, 0, [1, 1, 1, 1]>, <21, 20, 21, 1, 0, 0, 0, [1, 1, 1, 1]>, <22, 21, 22, 1, 0, 0, 0, [1, 1, 1, 1]>, <23, 22, 23, 1, 0, 0, 0, [1, 1, 1, 1]>, <24, 23, 24, 1, 0, 0, 0, [1, 1, 1, 1]>, <25, 24, 25, 1, 0, 0, 0, [1, 1, 1, 1]>, <26, 25, 26, 1, 0, 0, 0, [1, 1, 1, 1]>, <27, 26, 27, 1, 0, 0, 0, [1, 1, 1, 1]>, <28, 27, 28, 1, 0, 0, 0, [1, 1, 1, 1]>, <29, 28, 29, 1, 0, 0, 0, [1, 1, 1, 1]>, <30, 29, 30, 1, 0, 0, 0, [1, 1, 1, 1]>, <31, 30, 31, 1, 0, 0, 0, [1, 1, 1, 1]>, <32, 31, 32, 1, 0, 0, 0, [1, 1, 1, 1]>, <33, 32, 33, 1, 0, 0, 0, [1, 1, 1, 1]>, <34, 33, 34, 1, 0, 0, 0, [1, 1, 1, 1]>, <35, 34, 35, 1, 0, 0, 0, [1, 1, 1, 1]>, <36, 5, 14, 9, 1, 0, 1, [0, 1, 1, 0]>, <37, 6, 15, 9, 1, 0, 1, [0, 1, 1, 0]>, <38, 14, 23, 9, 1, 0, 1, [0, 1, 1, 0]>, <39, 15, 24, 9, 1, 0, 1, [0, 1, 1, 0]>, <40, 22, 31, 9, 1, 0, 1, [0, 1, 1, 0]>, <41, 23, 32, 9, 1, 0, 1, [0, 1, 1, 0]>, <42, 24, 33, 9, 1, 0, 1, [0, 1, 1, 0]>, <43, 5, 15, 10, 2, 0, 0, [1, 0, 0, 1]>, <44, 6, 16, 10, 2, 0, 0, [1, 0, 0, 1]>, <45, 14, 24, 10, 2, 0, 0, [1, 0, 0, 1]>, <46, 15, 25, 10, 2, 0, 0, [1, 0, 0, 1]>, <47, 21, 31, 10, 2, 0, 0, [1, 0, 0, 1]>, <48, 22, 32, 10, 2, 0, 0, [1, 0, 0, 1]>, <49, 23, 33, 10, 2, 0, 0, [1, 0, 0, 1]>, <50, 24, 34, 10, 2, 0, 0, [1, 0, 0, 1]>, <51, 5, 16, 11, 3, 1, 0, [0, 1, 1, 0]>, <52, 6, 17, 11, 3, 1, 0, [0, 1, 1, 0]>, <53, 14, 25, 11, 3, 1, 0, [0, 1, 1, 0]>, <54, 15, 26, 11, 3, 1, 0, [0, 1, 1, 0]>, <55, 20, 31, 11, 3, 1, 0, [0, 1, 1, 0]>, <56, 21, 32, 11, 3, 1, 0, [0, 1, 1, 0]>, <57, 22, 33, 11, 3, 1, 0, [0, 1, 1, 0]>, <58, 23, 34, 11, 3, 1, 0, [0, 1, 1, 0]>, <59, 24, 35, 11, 3, 1, 0, [0, 1, 1, 0]>, <60, 5, 16, 11, 4, 0, 1, [0, 1, 1, 0]>, <61, 6, 17, 11, 4, 0, 1, [0, 1, 1, 0]>, <62, 14, 25, 11, 4, 0, 1, [0, 1, 1, 0]>, <63, 15, 26, 11, 4, 0, 1, [0, 1, 1, 0]>, <64, 20, 31, 11, 4, 0, 1, [0, 1, 1, 0]>, <65, 21, 32, 11, 4, 0, 1, [0, 1, 1, 0]>, <66, 22, 33, 11, 4, 0, 1, [0, 1, 1, 0]>, <67, 23, 34, 11, 4, 0, 1, [0, 1, 1, 0]>, <68, 24, 35, 11, 4, 0, 1, [0, 1, 1, 0]>, <69, 2, 17, 15, 5, 0, 1, [0, 0, 1, 1]>, <70, 3, 18, 15, 5, 0, 1, [0, 0, 1, 1]>, <71, 4, 19, 15, 5, 0, 1, [0, 0, 1, 1]>, <72, 5, 20, 15, 5, 0, 1, [0, 0, 1, 1]>, <73, 6, 21, 15, 5, 0, 1, [0, 0, 1, 1]>, <74, 11, 26, 15, 5, 0, 1, [0, 0, 1, 1]>, <75, 12, 27, 15, 5, 0, 1, [0, 0, 1, 1]>, <76, 13, 28, 15, 5, 0, 1, [0, 0, 1, 1]>, <77, 14, 29, 15, 5, 0, 1, [0, 0, 1, 1]>, <78, 15, 30, 15, 5, 0, 1, [0, 0, 1, 1]>, <79, 16, 31, 15, 5, 0, 1, [0, 0, 1, 1]>, <80, 17, 32, 15, 5, 0, 1, [0, 0, 1, 1]>, <81, 18, 33, 15, 5, 0, 1, [0, 0, 1, 1]>, <82, 19, 34, 15, 5, 0, 1, [0, 0, 1, 1]>, <83, 20, 35, 15, 5, 0, 1, [0, 0, 1, 1]>, <84, 5, 15, 10, 6, 0, 1, [0, 0, 1, 1]>, <85, 6, 16, 10, 6, 0, 1, [0, 0, 1, 1]>, <86, 14, 24, 10, 6, 0, 1, [0, 0, 1, 1]>, <87, 15, 25, 10, 6, 0, 1, [0, 0, 1, 1]>, <88, 21, 31, 10, 6, 0, 1, [0, 0, 1, 1]>, <89, 22, 32, 10, 6, 0, 1, [0, 0, 1, 1]>, <90, 23, 33, 10, 6, 0, 1, [0, 0, 1, 1]>, <91, 24, 34, 10, 6, 0, 1, [0, 0, 1, 1]>, <92, 3, 17, 14, 7, 0, 0, [1, 1, 0, 0]>, <93, 4, 18, 14, 7, 0, 0, [1, 1, 0, 0]>, <94, 5, 19, 14, 7, 0, 0, [1, 1, 0, 0]>, <95, 6, 20, 14, 7, 0, 0, [1, 1, 0, 0]>, <96, 12, 26, 14, 7, 0, 0, [1, 1, 0, 0]>, <97, 13, 27, 14, 7, 0, 0, [1, 1, 0, 0]>, <98, 14, 28, 14, 7, 0, 0, [1, 1, 0, 0]>, <99, 15, 29, 14, 7, 0, 0, [1, 1, 0, 0]>, <100, 17, 31, 14, 7, 0, 0, [1, 1, 0, 0]>, <101, 18, 32, 14, 7, 0, 0, [1, 1, 0, 0]>, <102, 19, 33, 14, 7, 0, 0, [1, 1, 0, 0]>, <103, 20, 34, 14, 7, 0, 0, [1, 1, 0, 0]>, <104, 21, 35, 14, 7, 0, 0, [1, 1, 0, 0]>};
